NAME          ClpDefau  FREE
ROWS
 N  OBJROW
 L  ZMUNI1_PCT
 L  ZMUNI2_PCT
 L  ZMUNI3_PCT
 L  ZMUNI4_PCT
 L  ZMUNI5_PCT
 L  ZMUNI6_PCT
 L  ZMUNI7_PCT
 L  ZMUNI8_PCT
 L  ZMUNI9_PCT
COLUMNS
    QMUNI1 OBJROW 1.          
    QMUNI1 ZMUNI1_PCT 28017.09175 
    QMUNI1 ZMUNI2_PCT 1834.3925   
    QMUNI1 ZMUNI3_PCT 4328.8231   
    QMUNI1 ZMUNI4_PCT 3143.388033 
    QMUNI1 ZMUNI5_PCT 119.2093    
    QMUNI1 ZMUNI6_PCT 267.31491   
    QMUNI1 ZMUNI7_PCT 1452.0645   
    QMUNI1 ZMUNI8_PCT 1200.8667   
    QMUNI1 ZMUNI9_PCT 499.4392    
    QMUNI2 OBJROW 1.          
    QMUNI2 ZMUNI1_PCT 1293.46847  
    QMUNI2 ZMUNI2_PCT 32542.51477 
    QMUNI2 ZMUNI3_PCT 2129.364    
    QMUNI2 ZMUNI4_PCT 2291.691303 
    QMUNI2 ZMUNI5_PCT  -507.7362  
    QMUNI2 ZMUNI6_PCT  -470.16144 
    QMUNI2 ZMUNI7_PCT 111.9614    
    QMUNI2 ZMUNI8_PCT 445.5566    
    QMUNI2 ZMUNI9_PCT 450.4204    
    QMUNI3 OBJROW 1.          
    QMUNI3 ZMUNI1_PCT 4544.92569  
    QMUNI3 ZMUNI2_PCT 2917.1943   
    QMUNI3 ZMUNI3_PCT 29984.8557  
    QMUNI3 ZMUNI4_PCT 5358.630419 
    QMUNI3 ZMUNI5_PCT 560.8559    
    QMUNI3 ZMUNI6_PCT 680.82809   
    QMUNI3 ZMUNI7_PCT 1940.918    
    QMUNI3 ZMUNI8_PCT 1862.7167   
    QMUNI3 ZMUNI9_PCT 1223.1827   
    QMUNI4 OBJROW 1.          
    QMUNI4 ZMUNI1_PCT 3014.70756  
    QMUNI4 ZMUNI2_PCT 2746.9635   
    QMUNI4 ZMUNI3_PCT 5228.8056   
    QMUNI4 ZMUNI4_PCT 101804.17299
    QMUNI4 ZMUNI5_PCT  -341.8922  
    QMUNI4 ZMUNI6_PCT  -280.76172 
    QMUNI4 ZMUNI7_PCT 579.4525    
    QMUNI4 ZMUNI8_PCT 675.0107    
    QMUNI4 ZMUNI9_PCT 272.5601    
    QMUNI5 OBJROW 1.          
    QMUNI5 ZMUNI1_PCT 282.23991   
    QMUNI5 ZMUNI2_PCT 128.8414    
    QMUNI5 ZMUNI3_PCT 234.6039    
    QMUNI5 ZMUNI4_PCT 201.35045   
    QMUNI5 ZMUNI5_PCT 32596.1113  
    QMUNI5 ZMUNI6_PCT 2739.71557  
    QMUNI5 ZMUNI7_PCT 37.7655     
    QMUNI5 ZMUNI8_PCT  -60.8444   
    QMUNI5 ZMUNI9_PCT  -96.6072   
    QMUNI6 OBJROW 1.          
    QMUNI6 ZMUNI1_PCT 306.74934   
    QMUNI6 ZMUNI2_PCT 132.37      
    QMUNI6 ZMUNI3_PCT 242.2333    
    QMUNI6 ZMUNI4_PCT 188.00497   
    QMUNI6 ZMUNI5_PCT 2668.6669   
    QMUNI6 ZMUNI6_PCT 30820.65582 
    QMUNI6 ZMUNI7_PCT 111.5799    
    QMUNI6 ZMUNI8_PCT  -51.3077   
    QMUNI6 ZMUNI9_PCT  -96.1304   
    QMUNI7 OBJROW 1.          
    QMUNI7 ZMUNI1_PCT 1288.60474  
    QMUNI7 ZMUNI2_PCT 645.3514    
    QMUNI7 ZMUNI3_PCT 1106.5483   
    QMUNI7 ZMUNI4_PCT 809.884071  
    QMUNI7 ZMUNI5_PCT 100.4219    
    QMUNI7 ZMUNI6_PCT 272.36938   
    QMUNI7 ZMUNI7_PCT 27959.2514  
    QMUNI7 ZMUNI8_PCT 1818.4662   
    QMUNI7 ZMUNI9_PCT 203.6095    
    QMUNI8 OBJROW 1.          
    QMUNI8 ZMUNI1_PCT 1535.22491  
    QMUNI8 ZMUNI2_PCT 1310.4438   
    QMUNI8 ZMUNI3_PCT 1554.1077   
    QMUNI8 ZMUNI4_PCT 1237.732172 
    QMUNI8 ZMUNI5_PCT 599.1936    
    QMUNI8 ZMUNI6_PCT 688.45749   
    QMUNI8 ZMUNI7_PCT 2755.3558   
    QMUNI8 ZMUNI8_PCT 27315.3305  
    QMUNI8 ZMUNI9_PCT 1666.9273   
    QMUNI9 OBJROW 1.          
    QMUNI9 ZMUNI1_PCT 186.77711   
    QMUNI9 ZMUNI2_PCT 508.7852    
    QMUNI9 ZMUNI3_PCT 286.8653    
    QMUNI9 ZMUNI4_PCT 261.968374  
    QMUNI9 ZMUNI5_PCT  -460.5293  
    QMUNI9 ZMUNI6_PCT  -461.95984 
    QMUNI9 ZMUNI7_PCT  -179.2908  
    QMUNI9 ZMUNI8_PCT 418.663     
    QMUNI9 ZMUNI9_PCT 24024.6773  
RHS
    RHS ZMUNI1_PCT 0.2826386989
    RHS ZMUNI2_PCT 0.2612232917
    RHS ZMUNI3_PCT 0.1920494226
    RHS ZMUNI4_PCT 0.1835304499
    RHS ZMUNI5_PCT 0.2095466072
    RHS ZMUNI6_PCT 0.4705251252
    RHS ZMUNI7_PCT 0.027577146 
    RHS ZMUNI8_PCT -0.047441558
    RHS ZMUNI9_PCT 0.0729522614
BOUNDS
 LO BOUND QMUNI1 -0.001191562
 UP BOUND QMUNI1      1.1e+10
 LO BOUND QMUNI2 -0.000840827
 UP BOUND QMUNI2      1.1e+10
 LO BOUND QMUNI3 -0.000805734
 UP BOUND QMUNI3      1.1e+10
 LO BOUND QMUNI4 -0.000326066
 UP BOUND QMUNI4      1.1e+10
 LO BOUND QMUNI5 -0.000676935
 UP BOUND QMUNI5      1.1e+10
 LO BOUND QMUNI6 -0.000862826
 UP BOUND QMUNI6      1.1e+10
 LO BOUND QMUNI7 -0.000396144
 UP BOUND QMUNI7      1.1e+10
 LO BOUND QMUNI8 -0.000541393
 UP BOUND QMUNI8      1.1e+10
 LO BOUND QMUNI9 -0.000743986
 UP BOUND QMUNI9      1.1e+10
ENDATA
